# Objective value = 8.5098100000000013e+03
I_0_0 1230
I_0_1 1705
I_0_2 1690
I_0_3 1475
I_0_4 1.2519999999999995e+03
I_0_5 1.4989999999999995e+03
I_0_6 1.9739999999999995e+03
I_1_0 22
I_1_1 11
I_1_2 22
I_1_3 1.1000000000000004e+01
I_1_4 3.5527136788005009e-15
I_1_5 22
I_1_6 1.1000000000000004e+01
I_2_0 14
I_2_1 0
I_2_2 14
I_2_3 0
I_2_4 14
I_2_5 14
I_2_6 0
I_3_0 21
I_3_1 0
I_3_2 21
I_3_3 0
I_3_4 21
I_3_5 21
I_3_6 0
I_4_0 64
I_4_1 32
I_4_2 0
I_4_3 64
I_4_4 64
I_4_5 3.2000000000000014e+01
I_4_6 0
I_5_0 78
I_5_1 39
I_5_2 7.8000000000000043e+01
I_5_3 3.9000000000000043e+01
I_5_4 78
I_5_5 3.9000000000000007e+01
I_5_6 7.1054273576010019e-15
I_6_0 110
I_6_1 55
I_6_2 0
I_6_3 110
I_6_4 110
I_6_5 5.4999999999999986e+01
I_6_6 0
I_7_0 61
I_7_1 0
I_7_2 61
I_7_3 0
I_7_4 61
I_7_5 61
I_7_6 0
I_8_0 126
I_8_1 63
I_8_2 0
I_8_3 126
I_8_4 126
I_8_5 63
I_8_6 0
I_9_0 160
I_9_1 80
I_9_2 0
I_9_3 160
I_9_4 160
I_9_5 7.9999999999999929e+01
I_9_6 0
I_10_0 99
I_10_1 0
I_10_2 99
I_10_3 0
I_10_4 99
I_10_5 99
I_10_6 0
q_1_0 0
q_1_1 22
q_1_2 3.4613328354904152e-15
q_1_3 0
q_1_4 33
q_1_5 0
q_2_0 0
q_2_1 28
q_2_2 0
q_2_3 28
q_2_4 14
q_2_5 0
q_3_0 0
q_3_1 42
q_3_2 0
q_3_3 42
q_3_4 21
q_3_5 0
q_4_0 0
q_4_1 0
q_4_2 96
q_4_3 3.2000000000000135e+01
q_4_4 0
q_4_5 0
q_5_0 0
q_5_1 78
q_5_2 0
q_5_3 7.7999999999999957e+01
q_5_4 0
q_5_5 0
q_6_0 0
q_6_1 0
q_6_2 165
q_6_3 5.5000000000000156e+01
q_6_4 0
q_6_5 0
q_7_0 0
q_7_1 122
q_7_2 0
q_7_3 122
q_7_4 61
q_7_5 0
q_8_0 0
q_8_1 0
q_8_2 189
q_8_3 6.2999999999999915e+01
q_8_4 0
q_8_5 0
q_9_0 0
q_9_1 0
q_9_2 240
q_9_3 8.0000000000000270e+01
q_9_4 0
q_9_5 7.1054273576010019e-14
q_10_0 0
q_10_1 198
q_10_2 0
q_10_3 198
q_10_4 99
q_10_5 0
y_0_0 0
y_0_1 1
y_0_2 1
y_0_3 1
y_0_4 1
y_0_5 0
y_1_0 0
y_1_1 1
y_1_2 0
y_1_3 0
y_1_4 1
y_1_5 0
y_2_0 0
y_2_1 1
y_2_2 0
y_2_3 1
y_2_4 1
y_2_5 0
y_3_0 0
y_3_1 1
y_3_2 0
y_3_3 1
y_3_4 1
y_3_5 0
y_4_0 0
y_4_1 0
y_4_2 1
y_4_3 1
y_4_4 0
y_4_5 0
y_5_0 0
y_5_1 1
y_5_2 0
y_5_3 1
y_5_4 0
y_5_5 0
y_6_0 0
y_6_1 0
y_6_2 1
y_6_3 1
y_6_4 0
y_6_5 0
y_7_0 0
y_7_1 1
y_7_2 0
y_7_3 1
y_7_4 1
y_7_5 0
y_8_0 0
y_8_1 0
y_8_2 1
y_8_3 1
y_8_4 0
y_8_5 0
y_9_0 0
y_9_1 0
y_9_2 1
y_9_3 1
y_9_4 0
y_9_5 0
y_10_0 0
y_10_1 1
y_10_2 0
y_10_3 1
y_10_4 1
y_10_5 0
x_0_1_0 0
x_0_1_1 0
x_0_1_2 0
x_0_1_3 0
x_0_1_4 0
x_0_1_5 0
x_0_2_0 0
x_0_2_1 1
x_0_2_2 0
x_0_2_3 0
x_0_2_4 1
x_0_2_5 0
x_0_3_0 0
x_0_3_1 1
x_0_3_2 0
x_0_3_3 1
x_0_3_4 1
x_0_3_5 0
x_0_4_0 0
x_0_4_1 0
x_0_4_2 0
x_0_4_3 0
x_0_4_4 0
x_0_4_5 0
x_0_5_0 0
x_0_5_1 0
x_0_5_2 0
x_0_5_3 0
x_0_5_4 0
x_0_5_5 0
x_0_6_0 0
x_0_6_1 0
x_0_6_2 1
x_0_6_3 0
x_0_6_4 0
x_0_6_5 0
x_0_7_0 0
x_0_7_1 0
x_0_7_2 0
x_0_7_3 0
x_0_7_4 0
x_0_7_5 0
x_0_8_0 0
x_0_8_1 0
x_0_8_2 1
x_0_8_3 1
x_0_8_4 0
x_0_8_5 0
x_0_9_0 0
x_0_9_1 0
x_0_9_2 0
x_0_9_3 0
x_0_9_4 0
x_0_9_5 0
x_0_10_0 0
x_0_10_1 0
x_0_10_2 0
x_0_10_3 0
x_0_10_4 0
x_0_10_5 0
x_1_2_0 0
x_1_2_1 1
x_1_2_2 0
x_1_2_3 0
x_1_2_4 1
x_1_2_5 0
x_1_3_0 0
x_1_3_1 0
x_1_3_2 0
x_1_3_3 0
x_1_3_4 0
x_1_3_5 0
x_1_4_0 0
x_1_4_1 0
x_1_4_2 0
x_1_4_3 0
x_1_4_4 0
x_1_4_5 0
x_1_5_0 0
x_1_5_1 0
x_1_5_2 0
x_1_5_3 0
x_1_5_4 0
x_1_5_5 0
x_1_6_0 0
x_1_6_1 0
x_1_6_2 0
x_1_6_3 0
x_1_6_4 0
x_1_6_5 0
x_1_7_0 0
x_1_7_1 0
x_1_7_2 0
x_1_7_3 0
x_1_7_4 0
x_1_7_5 0
x_1_8_0 0
x_1_8_1 0
x_1_8_2 0
x_1_8_3 0
x_1_8_4 0
x_1_8_5 0
x_1_9_0 0
x_1_9_1 0
x_1_9_2 0
x_1_9_3 0
x_1_9_4 0
x_1_9_5 0
x_1_10_0 0
x_1_10_1 1
x_1_10_2 0
x_1_10_3 0
x_1_10_4 1
x_1_10_5 0
x_2_3_0 0
x_2_3_1 0
x_2_3_2 0
x_2_3_3 0
x_2_3_4 0
x_2_3_5 0
x_2_4_0 0
x_2_4_1 0
x_2_4_2 0
x_2_4_3 0
x_2_4_4 0
x_2_4_5 0
x_2_5_0 0
x_2_5_1 0
x_2_5_2 0
x_2_5_3 0
x_2_5_4 0
x_2_5_5 0
x_2_6_0 0
x_2_6_1 0
x_2_6_2 0
x_2_6_3 1
x_2_6_4 0
x_2_6_5 0
x_2_7_0 0
x_2_7_1 0
x_2_7_2 0
x_2_7_3 0
x_2_7_4 0
x_2_7_5 0
x_2_8_0 0
x_2_8_1 0
x_2_8_2 0
x_2_8_3 0
x_2_8_4 0
x_2_8_5 0
x_2_9_0 0
x_2_9_1 0
x_2_9_2 0
x_2_9_3 0
x_2_9_4 0
x_2_9_5 0
x_2_10_0 0
x_2_10_1 0
x_2_10_2 0
x_2_10_3 1
x_2_10_4 0
x_2_10_5 0
x_3_4_0 0
x_3_4_1 0
x_3_4_2 0
x_3_4_3 0
x_3_4_4 0
x_3_4_5 0
x_3_5_0 0
x_3_5_1 1
x_3_5_2 0
x_3_5_3 1
x_3_5_4 0
x_3_5_5 0
x_3_6_0 0
x_3_6_1 0
x_3_6_2 0
x_3_6_3 0
x_3_6_4 0
x_3_6_5 0
x_3_7_0 0
x_3_7_1 0
x_3_7_2 0
x_3_7_3 0
x_3_7_4 1
x_3_7_5 0
x_3_8_0 0
x_3_8_1 0
x_3_8_2 0
x_3_8_3 0
x_3_8_4 0
x_3_8_5 0
x_3_9_0 0
x_3_9_1 0
x_3_9_2 0
x_3_9_3 0
x_3_9_4 0
x_3_9_5 0
x_3_10_0 0
x_3_10_1 0
x_3_10_2 0
x_3_10_3 0
x_3_10_4 0
x_3_10_5 0
x_4_5_0 0
x_4_5_1 0
x_4_5_2 0
x_4_5_3 0
x_4_5_4 0
x_4_5_5 0
x_4_6_0 0
x_4_6_1 0
x_4_6_2 1
x_4_6_3 1
x_4_6_4 0
x_4_6_5 0
x_4_7_0 0
x_4_7_1 0
x_4_7_2 0
x_4_7_3 0
x_4_7_4 0
x_4_7_5 0
x_4_8_0 0
x_4_8_1 0
x_4_8_2 0
x_4_8_3 0
x_4_8_4 0
x_4_8_5 0
x_4_9_0 0
x_4_9_1 0
x_4_9_2 1
x_4_9_3 1
x_4_9_4 0
x_4_9_5 0
x_4_10_0 0
x_4_10_1 0
x_4_10_2 0
x_4_10_3 0
x_4_10_4 0
x_4_10_5 0
x_5_6_0 0
x_5_6_1 0
x_5_6_2 0
x_5_6_3 0
x_5_6_4 0
x_5_6_5 0
x_5_7_0 0
x_5_7_1 1
x_5_7_2 0
x_5_7_3 1
x_5_7_4 0
x_5_7_5 0
x_5_8_0 0
x_5_8_1 0
x_5_8_2 0
x_5_8_3 0
x_5_8_4 0
x_5_8_5 0
x_5_9_0 0
x_5_9_1 0
x_5_9_2 0
x_5_9_3 0
x_5_9_4 0
x_5_9_5 0
x_5_10_0 0
x_5_10_1 0
x_5_10_2 0
x_5_10_3 0
x_5_10_4 0
x_5_10_5 0
x_6_7_0 0
x_6_7_1 0
x_6_7_2 0
x_6_7_3 0
x_6_7_4 0
x_6_7_5 0
x_6_8_0 0
x_6_8_1 0
x_6_8_2 0
x_6_8_3 0
x_6_8_4 0
x_6_8_5 0
x_6_9_0 0
x_6_9_1 0
x_6_9_2 0
x_6_9_3 0
x_6_9_4 0
x_6_9_5 0
x_6_10_0 0
x_6_10_1 0
x_6_10_2 0
x_6_10_3 0
x_6_10_4 0
x_6_10_5 0
x_7_8_0 0
x_7_8_1 0
x_7_8_2 0
x_7_8_3 0
x_7_8_4 0
x_7_8_5 0
x_7_9_0 0
x_7_9_1 0
x_7_9_2 0
x_7_9_3 0
x_7_9_4 0
x_7_9_5 0
x_7_10_0 0
x_7_10_1 1
x_7_10_2 0
x_7_10_3 1
x_7_10_4 1
x_7_10_5 0
x_8_9_0 0
x_8_9_1 0
x_8_9_2 1
x_8_9_3 1
x_8_9_4 0
x_8_9_5 0
x_8_10_0 0
x_8_10_1 0
x_8_10_2 0
x_8_10_3 0
x_8_10_4 0
x_8_10_5 0
x_9_10_0 0
x_9_10_1 0
x_9_10_2 0
x_9_10_3 0
x_9_10_4 0
x_9_10_5 0
